NAME: random72
TYPE: TSP
DIMENSION: 72
EDGE_WEIGHT_TYPE: EXPLICIT
EDGE_WEIGHT_FORMAT: FULL_MATRIX
EDGE_WEIGHT_SECTION
0 127 32 127 19 42 127 30 127 127 127 127 127 64 34 127 127 127 127 25 127 127 127 38 127 127 127 127 127 51 28 127 127 127 127 127 127 21 24 127 127 127 21 127 50 127 127 127 127 127 127 45 127 127 25 127 127 127 127 22 127 127 127 15 127 127 127 127 18 16 127 127
127 0 25 27 127 127 17 127 127 27 26 21 14 127 127 127 127 40 43 127 30 127 127 21 127 31 127 127 6 127 127 127 127 27 27 37 24 127 127 127 14 127 127 127 127 127 127 127 26 16 127 127 11 22 127 127 30 127 127 31 9 127 9 127 127 127 21 127 127 127 127 10
32 25 0 127 127 36 34 5 26 21 42 38 127 127 12 127 127 127 127 10 127 127 35 23 127 36 127 127 30 127 29 127 127 127 21 31 29 14 127 127 22 127 23 127 127 127 41 127 127 37 23 22 18 31 127 127 127 20 127 11 127 127 127 44 127 127 30 127 17 127 127 25
127 27 127 0 127 127 127 127 127 127 127 22 16 127 127 10 127 127 16 127 29 127 127 127 10 127 57 127 22 127 127 20 127 16 127 127 127 127 127 127 127 127 127 4 127 127 127 127 8 25 127 127 127 127 127 127 127 127 14 127 22 127 18 127 127 127 127 127 127 127 22 28
19 127 127 127 0 58 127 127 127 127 127 127 127 45 127 127 127 127 127 34 127 41 127 28 127 29 127 127 127 33 14 127 127 127 127 127 29 22 5 127 127 127 13 127 32 127 127 127 127 127 127 127 127 127 42 127 127 127 127 25 127 127 127 33 127 127 127 127 19 6 127 127
42 127 36 127 58 0 127 31 22 37 127 127 127 127 25 127 23 127 127 28 127 127 30 127 127 127 127 41 127 127 127 127 22 127 127 36 127 127 127 41 127 127 51 127 127 127 127 127 127 127 23 22 127 127 42 127 127 29 127 38 127 52 127 41 127 53 127 27 42 57 127 127
127 17 34 127 127 127 0 127 127 127 9 127 25 127 127 127 127 24 127 127 127 127 127 16 127 18 32 127 21 127 29 127 127 21 43 127 14 127 127 127 12 127 127 127 30 127 127 127 26 6 127 127 27 39 127 127 14 127 127 35 127 127 18 127 127 127 10 127 127 127 127 27
30 127 5 127 127 31 127 0 23 21 127 127 127 127 8 127 127 127 127 6 127 127 127 27 127 127 127 127 127 127 127 127 127 127 21 30 127 15 127 127 27 127 25 127 127 127 127 127 127 127 20 19 21 127 48 127 127 18 127 11 127 127 127 41 127 127 34 127 17 127 127 127
127 127 26 127 127 22 127 23 0 16 127 127 127 127 16 127 11 127 127 25 127 127 11 127 127 127 127 28 127 127 127 127 13 127 16 14 127 127 127 25 127 127 127 127 127 17 27 127 127 127 3 4 127 30 127 127 127 9 127 127 127 127 127 54 15 41 127 16 127 127 127 127
127 27 21 127 127 37 127 21 16 0 127 127 127 127 19 127 25 127 127 26 28 127 18 39 127 127 127 127 127 127 127 127 127 127 1 11 127 127 127 127 34 127 127 127 127 127 21 127 127 127 14 15 16 15 127 127 127 8 127 31 127 127 127 127 15 127 127 127 127 127 127 19
127 26 42 127 127 127 9 127 127 127 0 127 127 127 127 127 127 16 45 127 127 30 127 21 127 16 24 127 29 127 31 127 127 21 127 127 17 127 40 127 20 20 127 127 25 127 127 127 28 12 127 127 36 127 127 127 7 127 127 127 127 127 26 127 127 127 14 127 127 127 127 127
127 21 38 22 127 127 127 127 127 127 127 0 11 127 127 16 127 127 36 127 9 127 127 127 12 127 127 127 15 127 127 20 127 127 26 32 127 127 127 127 35 127 127 25 127 127 27 45 27 127 127 127 21 12 127 36 127 127 20 127 12 127 18 127 33 127 127 127 127 127 20 15
127 14 127 16 127 127 25 127 127 127 127 11 0 127 127 15 127 127 31 127 20 127 127 127 8 127 127 127 7 127 127 24 127 23 127 127 127 127 127 127 127 127 127 19 127 127 127 127 18 21 127 127 19 19 127 127 34 127 21 127 7 127 7 127 127 127 127 127 127 127 25 13
64 127 127 127 45 127 127 127 127 127 127 127 127 0 127 127 127 16 127 127 127 5 127 127 127 127 9 127 127 13 38 127 127 127 127 127 127 127 40 127 127 13 46 127 14 127 127 127 127 127 127 127 127 127 127 127 33 127 127 127 127 127 127 127 127 127 127 127 127 50 127 127
34 127 12 127 127 25 127 8 16 19 127 127 127 127 0 127 27 127 127 8 127 127 127 35 127 127 127 127 127 127 127 127 28 127 19 26 127 21 127 127 34 127 127 127 127 127 127 127 127 127 13 12 25 127 48 127 127 14 127 18 127 127 127 42 127 57 127 127 24 44 127 127
127 127 127 10 127 127 127 127 127 127 127 16 15 127 127 0 127 127 20 127 20 127 127 127 7 127 127 127 22 127 127 11 127 25 127 127 127 127 127 127 127 127 127 11 127 127 41 127 17 127 127 127 127 28 127 47 127 127 6 127 21 127 21 127 127 127 127 127 127 127 12 27
127 127 127 127 127 23 127 127 11 25 127 127 127 127 27 127 0 127 127 127 127 127 9 127 127 127 127 19 127 127 127 127 2 127 127 17 127 127 127 18 127 127 127 127 127 14 28 25 127 127 14 15 127 127 127 127 127 19 127 127 127 31 127 127 16 32 127 5 127 127 127 127
127 40 127 127 127 127 24 127 127 127 16 127 127 16 127 127 127 0 60 127 127 14 127 27 127 14 10 127 127 14 29 127 127 36 127 127 21 127 34 127 30 4 37 127 10 127 127 127 44 28 127 127 127 127 127 127 19 127 127 127 127 127 127 127 127 127 21 127 127 127 127 127
127 43 127 16 127 127 127 127 127 127 45 36 31 127 127 20 127 60 0 127 40 127 127 127 25 127 64 127 127 127 127 24 127 24 127 127 127 127 127 127 127 64 127 12 127 127 127 127 19 38 127 127 127 127 127 127 41 127 18 127 127 127 34 127 127 127 127 127 127 127 26 127
25 127 10 127 34 28 127 6 25 26 127 127 127 127 8 127 127 127 127 0 127 127 127 30 127 127 127 127 127 127 127 127 36 127 127 127 127 14 36 127 31 127 24 127 127 127 127 127 127 127 22 21 127 127 42 127 127 22 127 11 127 127 127 35 127 127 127 127 16 36 127 127
127 30 127 29 127 127 127 127 127 28 127 9 20 127 127 20 127 127 40 127 0 127 38 127 19 127 127 46 24 127 127 19 127 127 28 30 127 127 127 40 127 127 127 127 127 34 21 39 127 127 127 127 28 14 127 28 127 127 22 127 21 51 127 127 31 53 127 127 127 127 17 22
127 127 127 127 41 127 127 127 127 127 30 127 127 5 127 127 127 14 127 127 127 0 127 127 127 24 10 127 127 8 34 127 127 49 127 127 127 127 35 127 127 10 42 127 10 127 127 127 127 127 127 127 127 127 127 127 32 127 127 127 127 127 127 127 127 127 127 127 127 46 127 127
127 127 35 127 127 30 127 127 11 18 127 127 127 127 127 127 9 127 127 127 38 127 0 127 127 127 127 17 127 127 127 127 11 127 19 9 127 127 127 14 127 127 127 127 127 6 19 20 127 127 13 15 127 29 127 32 127 15 127 127 127 127 127 127 7 31 127 10 127 127 127 127
38 21 23 127 28 127 16 27 127 39 21 127 127 127 35 127 127 27 127 30 127 127 127 0 127 13 127 127 127 32 15 127 127 127 38 127 6 20 25 127 8 127 17 127 28 127 127 127 127 21 127 127 25 41 127 127 127 41 127 21 127 127 127 127 127 127 8 127 21 34 127 29
127 127 127 10 127 127 127 127 127 127 127 12 8 127 127 7 127 127 25 127 19 127 127 127 0 127 127 127 16 127 127 16 127 127 127 127 127 127 127 127 127 127 127 14 127 127 127 127 16 27 127 127 127 23 127 47 127 127 13 127 15 127 14 127 127 127 127 127 127 127 17 20
127 31 36 127 29 127 18 127 127 127 16 127 127 127 127 127 127 14 127 127 127 24 127 13 127 0 24 127 127 19 16 127 127 37 127 127 8 30 24 127 18 16 23 127 15 127 127 127 127 23 127 127 127 127 127 127 23 127 127 127 127 127 127 127 127 127 10 127 127 35 127 127
127 127 127 57 127 127 32 127 127 127 24 127 127 9 127 127 127 10 64 127 127 10 127 127 127 24 0 127 127 15 37 127 127 41 127 127 127 127 41 127 127 8 127 58 14 127 127 127 49 36 127 127 127 127 127 127 24 127 71 127 127 127 50 127 127 127 31 127 127 52 127 127
127 127 127 127 127 41 127 127 28 127 127 127 127 127 127 127 19 127 127 127 46 127 17 127 127 127 127 0 127 127 127 127 19 127 127 127 127 127 127 6 127 127 127 127 127 15 24 9 127 127 127 127 127 127 127 28 127 127 127 127 127 12 127 127 20 14 127 14 127 127 127 127
127 6 30 22 127 127 21 127 127 127 29 15 7 127 127 22 127 127 127 127 24 127 127 127 16 127 127 127 0 127 127 127 127 25 27 127 127 127 127 127 20 127 127 26 127 127 127 127 22 18 127 127 13 19 127 127 127 127 127 127 3 127 5 127 127 127 127 127 127 127 127 8
51 127 127 127 33 127 127 127 127 127 127 127 127 13 127 127 127 14 127 127 127 8 127 32 127 19 15 127 127 0 26 127 127 127 127 127 27 127 27 127 127 10 34 127 5 127 127 127 127 127 127 127 127 127 127 127 127 127 127 127 127 127 127 65 127 127 127 127 127 38 127 127
28 127 29 127 14 127 29 127 127 127 31 127 127 38 127 127 127 29 127 127 127 34 127 15 127 16 37 127 127 26 0 127 127 127 127 127 15 18 10 127 23 29 8 127 24 127 127 127 127 127 127 127 127 127 127 127 38 127 127 21 127 127 127 127 127 127 19 127 16 20 127 127
127 127 127 20 127 127 127 127 127 127 127 20 24 127 127 11 127 127 24 127 19 127 127 127 16 127 127 127 127 127 127 0 127 36 127 127 127 127 127 127 127 127 127 20 127 127 127 127 27 127 127 127 127 31 127 41 127 127 6 127 127 127 127 127 127 127 127 127 127 127 2 127
127 127 127 127 127 22 127 127 13 127 127 127 127 127 28 127 2 127 127 36 127 127 11 127 127 127 127 19 127 127 127 127 0 127 127 19 127 127 127 19 127 127 127 127 127 16 127 26 127 127 16 17 127 127 127 41 127 21 127 127 127 31 127 127 18 32 127 5 127 127 127 127
127 27 127 16 127 127 21 127 127 127 21 127 23 127 127 25 127 36 24 127 127 49 127 127 127 37 41 127 25 127 127 36 127 0 127 127 127 127 127 127 127 40 127 17 45 127 127 127 9 16 127 127 127 127 127 127 18 127 30 127 127 127 20 127 127 127 31 127 127 127 127 127
127 27 21 127 127 127 43 21 16 1 127 26 127 127 19 127 127 127 127 127 28 127 19 38 127 127 127 127 27 127 127 127 127 127 0 11 127 127 127 127 34 127 127 127 127 20 21 127 127 127 14 15 16 15 127 37 127 8 127 31 25 127 127 127 15 127 43 127 127 127 127 19
127 37 31 127 127 36 127 30 14 11 127 32 127 127 26 127 17 127 127 127 30 127 9 127 127 127 127 127 127 127 127 127 19 127 11 0 127 127 127 18 45 127 127 127 127 8 14 22 127 127 14 16 27 20 127 29 127 12 127 127 127 127 127 127 3 127 127 19 127 127 47 29
127 24 29 127 29 127 14 127 127 127 17 127 127 127 127 127 127 21 127 127 127 127 127 6 127 8 127 127 127 27 15 127 127 127 127 127 0 24 25 127 11 23 20 127 22 127 127 127 127 20 127 127 30 127 127 127 24 127 127 26 127 127 127 127 127 127 4 127 25 127 127 127
21 127 14 127 22 127 127 15 127 127 127 127 127 127 21 127 127 127 127 14 127 127 127 20 127 30 127 127 127 127 18 127 127 127 127 127 24 0 23 127 24 127 10 127 41 127 127 127 127 127 127 127 29 127 127 127 127 127 127 4 127 127 127 35 127 127 27 127 3 25 127 127
24 127 127 127 5 127 127 127 127 127 40 127 127 40 127 127 127 34 127 36 127 35 127 25 127 24 41 127 127 27 10 127 127 127 127 127 25 23 0 127 127 33 13 127 27 127 127 127 127 127 127 127 127 127 48 127 127 127 127 27 127 127 127 38 127 127 29 127 20 11 127 127
127 127 127 127 127 41 127 127 25 127 127 127 127 127 127 127 18 127 127 127 40 127 14 127 127 127 127 6 127 127 127 127 19 127 127 18 127 127 127 0 127 127 127 127 127 10 18 7 127 127 127 127 127 127 127 24 127 127 127 127 127 16 127 127 15 18 127 14 127 127 127 127
127 14 22 127 127 127 12 27 127 34 20 35 127 127 34 127 127 30 127 31 127 127 127 8 127 18 127 127 20 127 23 127 127 127 34 45 11 24 127 127 0 127 24 127 127 127 127 127 34 16 127 127 19 34 127 127 26 37 127 24 23 127 20 127 127 127 9 127 26 127 127 22
127 127 127 127 127 127 127 127 127 127 20 127 127 13 127 127 127 4 64 127 127 10 127 127 127 16 8 127 127 10 29 127 127 40 127 127 23 127 33 127 127 0 127 127 7 127 127 127 127 32 127 127 127 127 127 127 23 127 127 127 127 127 127 127 127 127 24 127 127 44 127 127
21 127 23 127 13 51 127 25 127 127 127 127 127 46 127 127 127 37 127 24 127 42 127 17 127 23 127 127 127 34 8 127 127 127 127 127 20 10 13 127 24 127 0 127 32 127 127 127 127 127 127 127 127 127 46 127 127 127 127 14 127 127 127 36 127 127 24 127 9 18 127 127
127 127 127 4 127 127 127 127 127 127 127 25 19 127 127 11 127 127 12 127 127 127 127 127 14 127 58 127 26 127 127 20 127 17 127 127 127 127 127 127 127 127 127 0 127 127 127 127 9 28 127 127 127 127 127 127 34 127 14 127 127 127 22 127 127 127 127 127 127 127 22 127
50 127 127 127 32 127 30 127 127 127 25 127 127 14 127 127 127 10 127 127 127 10 127 28 127 15 14 127 127 5 24 127 127 45 127 127 22 41 27 127 127 7 32 127 0 127 127 127 127 35 127 127 127 127 127 127 28 127 127 127 127 127 127 127 127 127 24 127 127 38 127 127
127 127 127 127 127 127 127 127 17 127 127 127 127 127 127 127 14 127 127 127 34 127 6 127 127 127 127 15 127 127 127 127 16 127 20 8 127 127 127 10 127 127 127 127 127 0 14 15 127 127 127 127 127 27 127 26 127 19 127 127 127 26 127 127 5 28 127 13 127 127 51 127
127 127 41 127 127 127 127 127 27 21 127 27 127 127 127 41 28 127 127 127 21 127 19 127 127 127 127 24 127 127 127 127 127 127 21 14 127 127 127 18 127 127 127 127 127 14 0 18 127 127 127 127 32 18 127 17 127 25 127 127 34 31 127 127 13 33 127 27 127 127 38 31
127 127 127 127 127 127 127 127 127 127 127 45 127 127 127 127 25 127 127 127 39 127 20 127 127 127 127 9 127 127 127 127 26 127 127 22 127 127 127 7 127 127 127 127 127 15 18 0 127 127 127 127 127 36 127 18 127 127 127 127 127 13 127 127 19 15 127 21 127 127 54 127
127 26 127 8 127 127 26 127 127 127 28 27 18 127 127 17 127 44 19 127 127 127 127 127 16 127 49 127 22 127 127 27 127 9 127 127 127 127 127 127 34 127 127 9 127 127 127 127 0 20 127 127 127 127 127 127 25 127 22 127 24 127 17 127 127 127 127 127 127 127 29 30
127 16 37 25 127 127 6 127 127 127 12 127 21 127 127 127 127 28 38 127 127 127 127 21 27 23 36 127 18 127 127 127 127 16 127 127 20 127 127 127 16 32 127 28 35 127 127 127 20 0 127 127 26 127 127 127 14 127 38 127 21 127 14 127 127 127 16 127 127 127 127 25
127 127 23 127 127 23 127 20 3 14 127 127 127 127 13 127 14 127 127 22 127 127 13 127 127 127 127 127 127 127 127 127 16 127 14 14 127 127 127 127 127 127 127 127 127 127 127 127 127 127 0 1 127 127 127 127 127 7 127 127 127 127 127 127 16 44 127 127 127 127 127 127
45 127 22 127 127 22 127 19 4 15 127 127 127 127 12 127 15 127 127 21 127 127 15 127 127 127 127 127 127 127 127 127 17 127 15 16 127 127 127 127 127 127 127 127 127 127 127 127 127 127 1 0 127 127 56 127 127 7 127 30 127 127 127 51 127 45 127 20 127 127 127 127
127 11 18 127 127 127 27 21 127 16 36 21 19 127 25 127 127 127 127 127 28 127 127 25 127 127 127 127 13 127 127 127 127 127 16 27 30 29 127 127 19 127 127 127 127 127 32 127 127 26 127 127 0 16 127 127 127 22 127 26 13 127 18 127 30 127 28 127 127 127 41 7
127 22 31 127 127 127 39 127 30 15 127 12 19 127 127 28 127 127 127 127 14 127 29 41 23 127 127 127 19 127 127 31 127 127 15 20 127 127 127 127 34 127 127 127 127 27 18 36 127 127 127 127 16 0 127 32 127 23 127 127 16 49 23 127 22 127 127 127 127 127 30 13
25 127 127 127 42 42 127 48 127 127 127 127 127 127 48 127 127 127 127 42 127 127 127 127 127 127 127 127 127 127 127 127 127 127 127 127 127 127 48 127 127 127 46 127 127 127 127 127 127 127 127 56 127 127 0 127 127 127 127 127 127 127 127 10 127 127 127 127 42 37 127 127
127 127 127 127 127 127 127 127 127 127 127 36 127 127 127 47 127 127 127 127 28 127 32 127 47 127 127 28 127 127 127 41 41 127 37 29 127 127 127 24 127 127 127 127 127 26 17 18 127 127 127 127 127 32 127 0 127 127 127 127 127 27 127 127 27 28 127 37 127 127 39 45
127 30 127 127 127 127 14 127 127 127 7 127 34 33 127 127 127 19 41 127 127 32 127 127 127 23 24 127 127 127 38 127 127 18 127 127 24 127 127 127 26 23 127 34 28 127 127 127 25 14 127 127 127 127 127 127 0 127 127 127 127 127 28 127 127 127 20 127 127 127 127 127
127 127 20 127 127 29 127 18 9 8 127 127 127 127 14 127 19 127 127 22 127 127 15 41 127 127 127 127 127 127 127 127 21 127 8 12 127 127 127 127 37 127 127 127 127 19 25 127 127 127 7 7 22 23 127 127 127 0 127 29 127 127 127 55 15 127 127 23 127 127 127 127
127 127 127 14 127 127 127 127 127 127 127 20 21 127 127 6 127 127 18 127 22 127 127 127 13 127 71 127 127 127 127 6 127 30 127 127 127 127 127 127 127 127 127 14 127 127 127 127 22 38 127 127 127 127 127 127 127 127 0 127 127 127 127 127 127 127 127 127 127 127 8 127
22 31 11 127 25 38 35 11 127 31 127 127 127 127 18 127 127 127 127 11 127 127 127 21 127 127 127 127 127 127 21 127 127 127 31 127 26 4 27 127 24 127 14 127 127 127 127 127 127 127 127 30 26 127 127 127 127 29 127 0 127 127 127 36 127 127 28 127 7 28 127 127
127 9 127 22 127 127 127 127 127 127 127 12 7 127 127 21 127 127 127 127 21 127 127 127 15 127 127 127 3 127 127 127 127 127 25 127 127 127 127 127 23 127 127 127 127 127 34 127 24 21 127 127 13 16 127 127 127 127 127 127 0 127 8 127 127 127 127 127 127 127 30 6
127 127 127 127 127 52 127 127 127 127 127 127 127 127 127 127 31 127 127 127 51 127 127 127 127 127 127 12 127 127 127 127 31 127 127 127 127 127 127 16 127 127 127 127 127 26 31 13 127 127 127 127 127 49 127 27 127 127 127 127 127 0 127 127 31 2 127 26 127 127 65 127
127 9 127 18 127 127 18 127 127 127 26 18 7 127 127 21 127 127 34 127 127 127 127 127 14 127 50 127 5 127 127 127 127 20 127 127 127 127 127 127 20 127 127 22 127 127 127 127 17 14 127 127 18 23 127 127 28 127 127 127 8 127 0 127 127 127 26 127 127 127 127 13
15 127 44 127 33 41 127 41 54 127 127 127 127 127 42 127 127 127 127 35 127 127 127 127 127 127 127 127 127 65 127 127 127 127 127 127 127 35 38 127 127 127 36 127 127 127 127 127 127 127 127 51 127 127 10 127 127 55 127 36 127 127 127 0 127 127 127 127 33 28 127 127
127 127 127 127 127 127 127 127 15 15 127 33 127 127 127 127 16 127 127 127 31 127 7 127 127 127 127 20 127 127 127 127 18 127 15 3 127 127 127 15 127 127 127 127 127 5 13 19 127 127 16 127 30 22 127 27 127 15 127 127 127 31 127 127 0 127 127 17 127 127 127 127
127 127 127 127 127 53 127 127 41 127 127 127 127 127 57 127 32 127 127 127 53 127 31 127 127 127 127 14 127 127 127 127 32 127 127 127 127 127 127 18 127 127 127 127 127 28 33 15 127 127 44 45 127 127 127 28 127 127 127 127 127 2 127 127 127 0 127 27 127 127 127 127
127 21 30 127 127 127 10 34 127 127 14 127 127 127 127 127 127 21 127 127 127 127 127 8 127 10 31 127 127 127 19 127 127 31 43 127 4 27 29 127 9 24 24 127 24 127 127 127 127 16 127 127 28 127 127 127 20 127 127 28 127 127 26 127 127 127 0 127 127 127 127 30
127 127 127 127 127 27 127 127 16 127 127 127 127 127 127 127 5 127 127 127 127 127 10 127 127 127 127 14 127 127 127 127 5 127 127 19 127 127 127 14 127 127 127 127 127 13 27 21 127 127 127 20 127 127 127 37 127 23 127 127 127 26 127 127 17 27 127 0 127 127 127 127
18 127 17 127 19 42 127 17 127 127 127 127 127 127 24 127 127 127 127 16 127 127 127 21 127 127 127 127 127 127 16 127 127 127 127 127 25 3 20 127 26 127 9 127 127 127 127 127 127 127 127 127 127 127 42 127 127 127 127 7 127 127 127 33 127 127 127 127 0 22 127 127
16 127 127 127 6 57 127 127 127 127 127 127 127 50 44 127 127 127 127 36 127 46 127 34 127 35 52 127 127 38 20 127 127 127 127 127 127 25 11 127 127 44 18 127 38 127 127 127 127 127 127 127 127 127 37 127 127 127 127 28 127 127 127 28 127 127 127 127 22 0 127 127
127 127 127 22 127 127 127 127 127 127 127 20 25 127 127 12 127 127 26 127 17 127 127 127 17 127 127 127 127 127 127 2 127 127 127 47 127 127 127 127 127 127 127 22 127 51 38 54 29 127 127 127 41 30 127 39 127 127 8 127 30 65 127 127 127 127 127 127 127 127 0 34
127 10 25 28 127 127 27 127 127 19 127 15 13 127 127 27 127 127 127 127 22 127 127 29 20 127 127 127 8 127 127 127 127 127 19 29 127 127 127 127 22 127 127 127 127 127 31 127 30 25 127 127 7 13 127 45 127 127 127 127 6 127 13 127 127 127 30 127 127 127 34 0
EOF
